 200 64 
 34 38 29 74 90 14 78 80 85 55 8 20 
 38 50 57 18 67 81 10 42 76 56 53 14 
 70 90 40 66 95 98 40 46 81 99 17 9 
 51 80 91 71 50 5 34 93 60 12 46 76 
 45 2 19 5 41 97 70 32 13 52 80 49 
 74 19 8 66 
 33 
 1 2 3 10 13 17 19 21 22 26 27 28 
 31 35 36 38 39 40 41 42 43 44 47 48 
 49 50 53 54 57 59 60 61 64 
 45 
 2 3 4 7 8 9 11 12 13 14 15 16 
 17 18 19 21 22 23 24 25 27 28 30 32 
 34 35 36 37 38 41 42 43 44 46 48 49 
 50 52 53 56 57 58 59 61 63 
 38 
 2 3 6 8 10 11 12 13 14 15 16 17 
 19 20 24 27 30 31 35 36 37 39 40 41 
 42 43 44 46 48 51 53 56 58 59 60 61 
 62 64 
 55 
 1 2 3 4 5 7 8 9 10 11 13 14 
 15 16 17 19 21 22 23 24 25 26 27 28 
 29 30 31 32 33 34 35 36 37 38 39 43 
 44 45 46 47 48 49 51 52 53 54 55 56 
 57 58 59 60 61 62 63 
 56 
 1 3 6 7 8 9 10 11 12 13 14 15 
 16 17 18 19 20 21 22 24 25 26 27 28 
 29 30 31 32 33 34 36 37 38 39 40 41 
 42 43 44 46 47 49 50 51 52 53 54 55 
 56 57 59 60 61 62 63 64 
 32 
 2 4 6 10 13 16 18 19 23 24 25 26 
 27 28 29 31 36 39 42 43 44 45 46 48 
 49 50 52 53 54 56 61 64 
 32 
 1 3 4 5 8 10 11 12 14 17 18 19 
 24 28 33 35 36 38 39 42 44 45 46 47 
 49 51 52 53 56 58 59 61 
 28 
 1 6 9 12 13 14 16 22 24 28 29 30 
 32 33 34 36 37 39 42 45 47 49 56 57 
 59 60 61 64 
 31 
 1 3 5 6 7 10 14 15 20 22 23 24 
 27 29 32 33 34 35 36 38 42 45 49 50 
 52 53 54 56 57 59 60 
 50 
 1 2 3 4 5 6 8 9 10 11 13 14 
 15 16 17 18 19 20 21 22 23 24 26 27 
 28 30 31 32 33 35 37 39 41 42 43 45 
 50 51 52 53 54 55 56 57 58 60 61 62 
 63 64 
 35 
 1 2 3 4 6 7 9 11 12 14 15 16 
 17 20 21 25 27 29 30 32 33 35 36 37 
 38 41 42 45 47 51 52 53 58 62 63 
 18 
 6 13 14 16 26 27 34 37 41 48 50 51 
 54 58 60 61 62 63 
 61 
 1 3 4 5 6 7 8 9 10 11 12 13 
 14 15 16 17 18 19 20 21 22 23 24 25 
 26 27 28 29 30 31 32 33 34 35 36 38 
 39 40 41 42 43 44 45 46 47 48 49 50 
 51 52 53 54 55 56 57 58 60 61 62 63 
 64 
 13 
 3 4 9 13 22 26 37 50 51 54 57 60 
 64 
 6 
 17 28 31 43 57 63 
 31 
 1 4 5 6 8 9 10 11 14 19 21 26 
 27 30 31 32 33 34 35 36 37 42 45 46 
 48 49 50 52 55 56 62 
 9 
 1 8 12 14 16 18 30 46 55 
 34 
 1 2 3 6 9 11 12 13 15 16 19 21 
 22 24 25 26 28 29 32 33 34 37 40 44 
 45 48 50 52 55 56 57 58 61 62 
 61 
 1 2 3 4 5 6 7 8 9 10 11 12 
 13 14 15 16 17 18 19 21 22 24 25 26 
 27 28 29 30 31 32 33 34 35 36 37 38 
 39 41 42 43 44 45 46 47 48 49 50 51 
 52 53 54 55 56 57 58 59 60 61 62 63 
 64 
 7 
 1 2 23 33 34 51 56 
 26 
 1 4 7 9 12 14 15 22 26 30 35 37 
 38 41 43 47 49 51 52 54 55 56 57 58 
 62 63 
 23 
 1 3 4 14 16 17 19 22 23 26 29 30 
 32 33 38 39 43 45 49 51 52 53 55 
 28 
 1 3 5 6 11 15 16 18 19 21 22 23 
 24 26 27 29 30 31 34 35 39 40 46 47 
 56 57 59 61 
 24 
 4 6 10 11 15 23 27 32 34 35 37 39 
 40 43 46 48 49 50 53 57 60 61 62 64 
 5 
 9 11 29 32 47 
 33 
 1 4 5 6 9 15 17 19 20 21 24 26 
 28 29 32 33 35 39 40 41 44 45 47 49 
 50 51 53 54 55 58 62 63 64 
 10 
 14 17 19 21 27 32 35 49 60 63 
 26 
 2 4 6 12 14 15 16 17 18 19 23 25 
 28 31 32 33 35 36 42 45 46 47 54 55 
 61 64 
 29 
 4 5 8 11 15 16 17 18 20 21 24 25 
 26 30 32 34 37 43 45 46 47 48 54 57 
 59 60 61 62 64 
 31 
 1 3 4 5 6 11 12 14 21 22 23 25 
 26 31 33 35 37 39 40 41 46 47 48 49 
 51 55 57 58 59 60 62 
 30 
 1 4 6 7 9 10 15 16 18 19 20 21 
 22 23 28 36 37 38 40 41 42 44 45 47 
 49 50 57 58 59 61 
 62 
 1 2 3 4 5 6 7 8 9 10 12 13 
 14 15 16 17 18 19 20 21 22 23 24 25 
 26 27 28 29 30 31 32 34 35 36 37 38 
 39 40 41 42 43 44 45 46 47 48 49 50 
 51 52 53 54 55 56 57 58 59 60 61 62 
 63 64 
 32 
 3 4 5 6 7 8 9 10 12 14 16 17 
 18 19 22 23 27 29 33 36 41 42 43 44 
 45 47 49 52 56 58 60 63 
 28 
 1 2 3 4 5 9 11 12 13 19 21 26 
 27 30 31 33 35 37 39 43 47 50 52 53 
 54 56 57 63 
 19 
 1 2 3 5 6 8 23 24 30 32 39 40 
 47 49 53 54 56 57 60 
 48 
 1 3 5 6 7 8 9 11 13 14 15 16 
 17 19 20 22 23 25 27 28 29 30 31 32 
 33 35 36 37 38 41 43 46 47 48 49 50 
 51 52 53 54 55 57 59 60 61 62 63 64 
 31 
 1 2 4 5 8 10 12 15 17 18 20 22 
 23 27 32 35 38 39 41 45 46 48 49 51 
 52 54 58 60 62 63 64 
 26 
 1 2 5 6 7 8 12 13 21 23 26 27 
 29 33 37 38 40 44 46 49 52 54 55 58 
 60 64 
 45 
 1 6 8 10 11 12 14 15 17 18 20 21 
 23 24 25 26 27 28 30 31 32 34 36 37 
 39 41 42 43 44 45 48 49 50 51 52 53 
 55 56 58 59 60 61 62 63 64 
 7 
 7 13 29 32 41 44 52 
 47 
 1 3 4 5 6 7 9 10 11 12 13 16 
 17 18 20 21 23 24 25 26 27 28 29 30 
 31 32 33 34 37 39 41 43 45 46 48 49 
 50 51 52 53 54 55 57 58 59 60 64 
 3 
 14 26 39 
 20 
 1 3 4 5 7 9 13 14 20 23 24 25 
 26 31 32 34 42 48 61 64 
 18 
 6 7 11 21 25 28 29 32 34 37 45 49 
 51 52 55 59 63 64 
 60 
 1 2 3 5 6 7 8 9 10 11 12 13 
 14 15 16 17 18 19 20 22 23 24 25 26 
 27 28 29 30 31 32 33 34 35 36 38 39 
 40 42 43 44 45 46 47 48 49 50 51 52 
 53 54 55 56 57 58 59 60 61 62 63 64 
 50 
 1 2 3 4 5 6 7 8 9 10 12 13 
 14 15 16 19 21 22 23 24 26 27 28 30 
 31 32 33 34 36 37 38 39 41 42 43 44 
 46 47 48 49 51 52 53 55 56 59 60 61 
 62 64 
 9 
 9 12 14 17 20 25 29 50 52 
 11 
 10 11 22 25 31 34 36 41 47 53 56 
 33 
 1 3 8 15 16 17 21 22 24 25 26 27 
 28 29 30 31 32 34 35 40 41 42 43 46 
 47 48 50 51 52 58 62 63 64 
 29 
 2 7 8 10 13 16 17 18 19 26 33 34 
 35 36 39 40 41 43 44 45 50 53 55 56 
 58 60 61 62 64 
 46 
 2 3 4 5 6 7 8 10 11 12 13 14 
 15 16 17 18 19 20 22 23 24 25 26 27 
 28 29 31 34 35 38 40 42 44 45 46 47 
 49 50 52 53 56 57 58 59 60 62 
 18 
 2 3 4 5 10 13 14 15 21 24 26 27 
 41 42 52 57 63 64 
 27 
 1 2 6 9 11 12 13 17 18 20 23 29 
 32 33 34 35 37 40 42 46 50 52 53 54 
 57 62 63 
 34 
 3 4 5 7 8 9 12 14 15 16 17 18 
 19 21 25 27 28 33 34 35 39 43 45 49 
 51 52 53 54 56 58 60 61 62 64 
 12 
 1 7 9 13 15 26 31 33 35 38 48 49 
 60 
 1 2 3 4 5 6 7 8 9 10 11 12 
 13 14 15 17 18 19 20 21 22 24 25 26 
 27 28 29 31 32 33 34 35 36 37 38 39 
 40 41 42 43 44 45 46 47 48 50 51 52 
 53 54 55 56 57 58 59 60 61 62 63 64 
 60 
 1 2 3 4 5 6 7 8 9 10 12 13 
 14 15 16 17 18 19 20 21 22 23 24 25 
 26 28 29 30 31 32 33 34 35 36 37 39 
 40 41 42 43 44 45 46 47 49 50 51 52 
 53 54 55 56 57 58 59 60 61 62 63 64 
 4 
 16 28 45 53 
 16 
 2 3 6 8 10 17 22 23 24 26 27 33 
 40 44 45 52 
 64 
 1 2 3 4 5 6 7 8 9 10 11 12 
 13 14 15 16 17 18 19 20 21 22 23 24 
 25 26 27 28 29 30 31 32 33 34 35 36 
 37 38 39 40 41 42 43 44 45 46 47 48 
 49 50 51 52 53 54 55 56 57 58 59 60 
 61 62 63 64 
 40 
 2 3 5 7 8 11 14 16 17 18 19 20 
 21 22 23 24 25 26 28 30 32 33 39 41 
 42 44 45 47 48 50 51 52 53 54 56 57 
 58 59 61 63 
 17 
 1 2 12 16 21 23 25 27 28 29 33 39 
 48 49 51 62 63 
 45 
 2 3 6 7 8 9 10 13 15 18 19 20 
 21 24 25 27 28 29 30 31 32 34 35 36 
 37 38 39 40 41 42 44 45 46 50 51 52 
 54 55 58 59 60 61 62 63 64 
 23 
 1 4 5 6 7 8 20 21 22 31 34 37 
 42 43 45 46 50 52 53 57 58 59 63 
 3 
 23 43 52 
 35 
 5 6 7 9 10 11 12 14 16 20 21 24 
 26 28 31 32 33 35 36 37 40 42 43 45 
 46 47 50 53 55 56 59 60 61 62 64 
 32 
 2 5 7 8 9 12 16 17 18 19 23 26 
 27 30 34 36 37 38 40 41 43 44 45 46 
 51 52 54 56 58 60 63 64 
 34 
 1 2 3 5 7 8 10 11 12 13 14 17 
 20 22 23 24 25 29 30 34 35 36 37 44 
 45 51 52 55 57 58 60 62 63 64 
 15 
 4 5 9 15 22 27 34 35 38 43 46 48 
 50 57 61 
 29 
 3 10 11 12 14 17 18 19 20 21 23 25 
 26 30 32 35 36 37 40 43 46 48 50 51 
 54 55 56 60 62 
 47 
 1 4 5 6 7 8 9 10 11 12 13 16 
 18 21 22 23 24 26 27 29 30 31 34 35 
 37 38 39 40 41 42 44 45 47 48 49 50 
 51 53 54 55 57 58 60 61 62 63 64 
 60 
 1 2 3 4 5 6 7 8 9 10 11 12 
 13 14 15 16 17 18 19 20 21 23 24 25 
 26 27 28 29 30 31 32 33 34 35 36 37 
 38 40 41 42 43 45 46 47 48 49 50 51 
 52 53 54 56 57 58 59 60 61 62 63 64 
 10 
 15 19 30 32 37 41 42 48 56 60 
 8 
 4 18 24 30 42 47 52 64 
 27 
 3 6 15 16 19 20 23 27 29 31 33 34 
 39 40 41 43 47 49 50 51 53 54 55 56 
 57 63 64 
 6 
 8 27 30 36 38 63 
 4 
 8 28 40 51 
 31 
 1 5 7 9 10 11 18 19 22 23 24 25 
 33 35 41 42 46 47 48 49 53 54 55 56 
 57 59 60 61 62 63 64 
 63 
 1 2 3 4 5 6 7 8 9 10 11 12 
 13 14 15 16 17 18 19 20 21 22 23 24 
 25 26 27 28 29 30 31 32 33 34 35 36 
 37 38 39 40 41 42 43 44 45 47 48 49 
 50 51 52 53 54 55 56 57 58 59 60 61 
 62 63 64 
 13 
 1 4 8 13 24 28 29 30 34 35 37 39 
 58 
 36 
 1 3 4 5 7 10 13 14 16 18 19 20 
 21 22 24 25 28 30 32 34 36 38 40 42 
 45 47 48 51 52 53 56 58 59 62 63 64 
 62 
 1 2 4 5 6 7 8 9 10 11 12 13 
 14 15 17 18 19 20 21 22 23 24 25 26 
 27 28 29 30 31 32 33 34 35 36 37 38 
 39 40 41 42 43 44 45 46 47 48 49 50 
 51 52 53 54 55 56 57 58 59 60 61 62 
 63 64 
 44 
 1 2 3 5 7 9 10 11 12 13 14 17 
 18 19 20 24 25 28 29 30 33 34 35 36 
 37 39 40 41 43 44 45 46 47 49 50 51 
 52 53 54 56 57 60 61 62 
 38 
 1 2 3 4 6 7 8 9 11 12 14 16 
 17 18 19 20 28 29 30 31 33 35 36 37 
 38 39 41 49 50 52 53 54 55 56 59 60 
 62 64 
 22 
 1 3 4 6 8 9 15 16 17 19 21 28 
 31 33 35 37 39 44 49 53 61 63 
 2 
 15 27 
 18 
 3 4 5 8 10 13 21 26 33 38 40 41 
 46 48 51 53 57 58 
 45 
 1 2 3 5 6 7 11 12 13 15 16 17 
 18 19 23 24 25 26 27 28 29 30 31 32 
 33 34 35 36 37 40 41 43 45 46 48 49 
 50 52 53 55 56 57 59 61 62 
 9 
 9 26 28 33 36 45 49 52 55 
 28 
 1 3 5 10 12 14 16 17 18 19 21 25 
 28 31 35 36 47 48 50 54 55 56 57 58 
 60 61 62 64 
 23 
 6 7 8 14 15 16 17 19 23 24 33 34 
 36 40 44 45 49 51 52 56 61 62 64 
 44 
 1 2 4 5 6 7 12 14 17 19 20 21 
 22 23 24 25 26 27 28 29 31 32 34 35 
 37 38 39 41 42 43 44 45 46 48 49 50 
 52 53 54 58 60 61 63 64 
 5 
 21 45 49 51 64 
 55 
 1 2 3 4 5 6 8 9 11 13 14 15 
 16 17 18 20 21 22 23 24 25 26 27 28 
 29 30 31 32 33 34 35 36 38 39 40 41 
 42 43 44 45 48 49 50 51 52 53 54 56 
 57 58 59 60 61 63 64 
 6 
 1 2 7 16 19 28 
 2 
 27 56 
 17 
 9 12 13 24 29 31 33 36 43 45 47 49 
 54 55 57 59 60 
 42 
 1 3 4 5 7 9 11 12 14 16 18 21 
 23 24 25 26 27 29 30 32 33 34 35 36 
 37 38 39 41 43 46 48 49 50 52 53 57 
 58 59 60 61 63 64 
 50 
 1 2 3 4 5 7 8 9 10 11 13 14 
 16 17 18 19 20 22 24 25 26 27 29 30 
 31 32 33 35 36 37 38 40 41 44 45 47 
 48 49 51 52 54 55 56 57 58 59 60 62 
 63 64 
 49 
 2 3 4 6 7 8 9 10 11 12 13 14 
 15 16 17 18 19 20 23 24 25 27 28 29 
 30 31 32 33 35 36 37 39 40 41 42 44 
 45 47 48 49 50 51 53 54 58 59 60 61 
 62 
 14 
 2 5 8 15 18 27 29 31 35 38 42 45 
 51 55 
 33 
 1 2 4 5 6 8 9 11 13 14 16 18 
 22 23 27 29 34 35 37 38 39 41 42 46 
 47 48 51 52 53 57 58 61 62 
 50 
 1 2 3 4 6 8 9 10 11 12 14 15 
 17 18 19 20 21 22 23 24 26 27 29 30 
 32 33 34 35 36 37 38 40 41 42 43 44 
 46 48 49 50 52 53 54 55 56 58 60 62 
 63 64 
 7 
 5 9 11 20 31 32 64 
 11 
 4 12 16 29 31 45 51 53 57 61 62 
 61 
 1 2 3 4 5 6 7 8 9 10 11 12 
 13 14 15 16 17 18 19 20 21 22 23 25 
 27 28 29 30 31 32 33 34 35 36 37 38 
 39 40 41 42 43 44 45 46 47 48 49 50 
 51 52 53 54 55 56 57 58 59 60 62 63 
 64 
 11 
 2 5 9 14 15 31 41 55 60 61 63 
 62 
 1 2 3 4 5 6 7 8 9 10 11 13 
 14 15 16 17 18 19 20 21 23 24 25 26 
 27 28 29 30 31 32 33 34 35 36 37 38 
 39 40 41 42 43 44 45 46 47 48 49 50 
 51 52 53 54 55 56 57 58 59 60 61 62 
 63 64 
 53 
 1 2 4 5 6 9 10 11 12 13 14 15 
 16 17 18 20 21 22 23 24 25 26 27 28 
 29 30 31 32 33 34 35 36 37 38 40 42 
 44 46 47 48 49 50 51 52 53 55 56 57 
 58 59 60 62 63 
 37 
 1 4 5 11 12 15 19 21 23 25 26 31 
 32 35 36 37 39 40 42 43 44 45 46 47 
 48 50 52 53 54 55 57 58 60 61 62 63 
 64 
 55 
 1 2 3 4 5 6 7 8 9 10 11 12 
 13 14 15 16 19 20 21 22 23 24 26 27 
 28 29 30 31 34 35 36 37 38 41 43 44 
 45 46 47 48 49 50 51 52 53 54 56 57 
 58 59 60 61 62 63 64 
 9 
 3 8 11 14 20 31 39 44 62 
 30 
 1 2 3 4 6 7 8 9 12 13 18 19 
 21 22 23 25 26 29 33 34 35 40 45 46 
 49 51 54 55 60 63 
 25 
 2 4 5 7 8 9 11 18 20 23 29 31 
 36 38 39 43 44 45 46 47 50 54 56 58 
 61 
 16 
 6 7 8 12 14 16 23 24 26 36 38 39 
 46 52 54 56 
 11 
 2 5 13 18 27 28 31 40 42 51 63 
 18 
 2 12 16 18 19 22 24 29 33 34 35 43 
 51 52 53 55 56 58 
 29 
 1 3 6 7 9 10 11 12 15 18 20 21 
 24 25 26 31 33 34 40 41 43 45 51 52 
 53 54 59 62 63 
 5 
 4 20 23 49 55 
 63 
 1 2 3 4 5 6 7 8 9 10 11 12 
 13 14 15 16 17 18 19 20 21 22 23 24 
 25 27 28 29 30 31 32 33 34 35 36 37 
 38 39 40 41 42 43 44 45 46 47 48 49 
 50 51 52 53 54 55 56 57 58 59 60 61 
 62 63 64 
 34 
 1 3 4 6 8 9 10 11 17 19 24 27 
 31 32 33 34 35 37 38 39 40 41 44 47 
 48 49 52 53 55 59 61 62 63 64 
 42 
 1 2 3 7 8 9 11 12 13 15 16 17 
 18 19 20 21 24 26 27 28 29 30 32 34 
 35 36 39 40 41 43 44 45 46 47 52 53 
 54 55 56 58 60 63 
 38 
 1 2 3 7 8 10 12 13 14 15 16 22 
 23 25 27 31 32 33 34 38 39 40 41 43 
 44 45 46 49 50 51 54 57 58 59 60 62 
 63 64 
 32 
 1 2 5 6 8 11 12 15 16 18 19 22 
 26 28 32 33 36 37 39 40 42 43 45 48 
 49 50 51 54 57 59 62 63 
 59 
 1 2 3 4 5 6 7 8 9 10 11 13 
 15 16 18 19 20 21 22 23 24 25 26 27 
 28 29 30 31 32 33 34 35 36 37 38 39 
 40 41 42 43 44 45 46 47 48 49 50 51 
 52 53 55 56 57 58 59 60 61 62 63 
 57 
 1 2 3 4 5 7 8 9 10 11 12 13 
 14 15 16 17 18 19 20 21 22 23 24 25 
 26 27 29 30 32 33 34 35 36 37 38 39 
 40 41 42 43 44 45 46 47 48 49 51 52 
 54 55 56 57 58 59 60 61 64 
 45 
 1 2 3 4 5 10 12 13 14 15 17 18 
 19 20 22 26 28 29 30 31 32 33 34 36 
 38 39 40 41 42 43 44 45 46 48 49 50 
 51 52 53 54 57 60 62 63 64 
 23 
 1 3 5 6 7 10 11 13 14 21 24 25 
 27 32 34 44 45 52 53 58 59 62 63 
 57 
 1 2 3 4 5 6 7 8 9 10 11 12 
 13 14 15 16 17 18 19 20 21 23 25 26 
 27 28 29 30 31 32 33 34 35 36 37 38 
 40 41 43 44 45 46 47 48 49 52 53 54 
 56 57 58 59 60 61 62 63 64 
 43 
 1 3 4 5 7 8 9 10 11 12 13 15 
 16 17 18 19 20 21 22 26 27 30 31 34 
 35 36 41 42 43 44 47 48 49 51 52 55 
 56 57 59 60 61 62 63 
 21 
 5 7 11 13 19 21 23 27 29 30 31 40 
 41 45 47 51 53 56 57 59 60 
 43 
 2 4 5 6 7 8 9 10 11 12 13 14 
 17 18 19 20 21 25 26 27 28 30 31 32 
 33 36 37 38 39 40 41 46 47 49 51 52 
 54 55 57 59 62 63 64 
 25 
 1 2 3 8 10 13 14 17 22 28 29 33 
 34 38 40 43 44 45 51 53 55 56 61 63 
 64 
 4 
 5 6 21 64 
 29 
 1 7 12 16 18 24 28 29 31 33 35 36 
 38 40 41 44 45 46 47 48 49 50 51 52 
 53 54 55 63 64 
 45 
 2 3 4 5 6 7 10 12 13 14 15 16 
 19 20 23 24 25 26 27 28 29 30 31 32 
 33 34 35 36 37 39 40 41 44 45 46 47 
 49 53 54 55 56 58 60 61 63 
 37 
 3 4 5 9 11 13 14 15 16 17 19 20 
 21 22 25 26 28 29 31 34 36 37 39 40 
 41 43 44 46 48 49 51 52 57 59 62 63 
 64 
 26 
 2 5 8 12 14 16 17 26 28 29 30 33 
 34 37 42 43 45 48 50 53 55 56 59 61 
 62 64 
 26 
 4 5 7 11 12 13 14 17 25 27 29 30 
 31 35 37 39 40 41 42 44 51 53 56 57 
 61 63 
 54 
 1 2 3 4 5 8 9 11 12 13 14 15 
 16 17 19 20 21 22 23 25 26 27 28 29 
 30 31 32 33 34 35 36 37 38 39 40 41 
 42 44 45 48 49 50 52 53 54 55 56 58 
 59 60 61 62 63 64 
 60 
 1 3 4 5 7 8 9 11 12 13 14 15 
 16 17 18 19 20 21 22 23 24 25 26 27 
 28 29 30 31 32 33 34 35 36 37 38 39 
 41 42 43 44 45 46 47 48 49 50 51 52 
 53 54 55 56 57 58 59 60 61 62 63 64 
 41 
 2 3 4 5 6 7 9 10 11 12 14 15 
 16 17 22 23 25 26 27 28 29 30 31 35 
 36 38 41 42 44 46 47 49 51 53 55 56 
 60 61 62 63 64 
 4 
 13 15 41 59 
 12 
 15 17 21 24 27 30 31 33 35 46 51 55 
 56 
 1 2 3 4 6 7 8 9 10 11 12 13 
 15 16 17 18 19 20 21 22 23 25 26 27 
 28 29 30 32 34 35 36 37 38 39 40 41 
 43 44 45 46 47 48 49 50 51 53 54 55 
 56 57 58 60 61 62 63 64 
 8 
 11 24 25 34 39 50 56 57 
 41 
 2 4 5 6 7 9 10 13 14 15 16 17 
 18 19 20 21 23 25 26 28 32 34 35 36 
 38 39 42 48 49 50 51 53 54 55 57 58 
 59 60 61 63 64 
 14 
 1 5 7 8 15 18 19 21 29 39 41 43 
 61 63 
 55 
 1 2 3 4 5 6 7 8 9 10 11 12 
 13 16 17 18 20 21 23 24 26 28 30 31 
 32 33 34 35 36 37 38 39 40 41 43 45 
 46 47 48 49 50 51 52 53 54 55 56 57 
 58 59 60 61 62 63 64 
 62 
 1 2 3 4 5 6 7 8 9 10 11 12 
 13 14 15 16 17 18 19 20 21 22 23 24 
 25 26 27 28 29 30 31 32 33 34 35 36 
 37 38 39 40 41 42 43 44 45 46 47 48 
 49 50 51 52 54 55 56 57 58 59 60 62 
 63 64 
 54 
 2 3 4 5 6 7 9 11 13 15 16 18 
 19 21 22 23 24 25 26 27 28 29 30 31 
 32 33 34 35 36 37 38 39 40 42 43 44 
 45 46 47 48 49 50 51 53 54 55 56 57 
 58 60 61 62 63 64 
 9 
 3 4 6 13 24 29 38 51 59 
 15 
 7 8 19 23 24 32 35 38 41 46 49 54 
 57 60 63 
 15 
 4 10 12 16 18 24 25 35 36 40 46 51 
 52 53 59 
 2 
 16 28 
 4 
 10 17 57 64 
 23 
 1 2 6 7 10 13 15 23 24 25 33 40 
 42 44 45 47 49 50 51 57 59 62 63 
 62 
 1 2 3 4 5 6 7 8 9 10 11 12 
 13 15 16 18 19 20 21 22 23 24 25 26 
 27 28 29 30 31 32 33 34 35 36 37 38 
 39 40 41 42 43 44 45 46 47 48 49 50 
 51 52 53 54 55 56 57 58 59 60 61 62 
 63 64 
 3 
 24 36 61 
 63 
 1 2 3 4 5 6 7 8 9 10 11 12 
 13 14 15 16 17 18 19 20 21 22 23 24 
 25 26 27 28 29 30 31 32 33 34 35 36 
 37 38 39 40 41 42 43 44 45 46 47 48 
 49 50 51 52 54 55 56 57 58 59 60 61 
 62 63 64 
 60 
 1 2 3 4 5 6 7 8 9 10 11 13 
 14 15 17 18 19 20 21 22 23 24 25 26 
 27 28 29 30 31 32 33 34 35 36 37 38 
 39 40 41 42 43 44 45 46 47 49 50 51 
 52 53 54 55 57 58 59 60 61 62 63 64 
 24 
 1 3 7 9 10 11 14 16 17 19 22 25 
 27 30 33 41 44 47 48 49 50 60 62 63 
 32 
 4 9 10 12 15 16 20 22 23 24 28 31 
 32 33 34 40 41 42 43 46 47 49 50 52 
 54 55 56 57 58 59 63 64 
 53 
 1 2 3 5 6 9 10 11 12 13 15 16 
 17 19 20 22 23 24 25 26 27 28 29 30 
 31 32 33 34 35 36 37 39 40 41 42 43 
 44 45 46 47 48 49 51 52 53 54 57 58 
 59 60 61 62 64 
 57 
 1 2 3 4 7 8 10 11 13 14 15 16 
 17 18 19 20 21 22 23 24 25 28 29 30 
 31 32 33 34 35 36 37 38 39 40 41 42 
 43 44 45 46 47 48 49 50 51 52 54 55 
 56 57 58 59 60 61 62 63 64 
 40 
 2 3 4 7 8 10 11 13 14 15 16 17 
 18 20 21 22 23 24 27 29 30 32 35 36 
 40 41 43 44 45 49 51 52 54 56 58 60 
 61 62 63 64 
 21 
 2 6 7 9 15 19 21 26 29 31 35 37 
 38 40 41 45 50 51 53 57 62 
 58 
 1 2 3 4 5 6 7 8 9 10 11 12 
 13 14 15 16 18 19 21 22 23 24 26 27 
 28 29 30 31 33 34 35 36 37 38 39 40 
 41 42 43 45 46 48 49 50 51 52 53 54 
 55 56 57 58 59 60 61 62 63 64 
 52 
 1 2 3 5 6 7 8 9 10 11 13 17 
 18 19 20 21 22 23 24 26 27 29 30 31 
 32 33 34 36 37 39 40 42 43 45 46 47 
 48 49 50 51 52 53 54 56 57 58 59 60 
 61 62 63 64 
 63 
 1 2 3 4 5 6 7 8 9 10 11 12 
 13 14 15 16 17 18 19 20 21 22 23 24 
 25 26 27 28 29 30 31 32 33 34 35 37 
 38 39 40 41 42 43 44 45 46 47 48 49 
 50 51 52 53 54 55 56 57 58 59 60 61 
 62 63 64 
 7 
 13 19 32 35 43 45 63 
 13 
 5 7 16 25 38 43 44 48 49 50 53 61 
 64 
 14 
 5 9 16 19 23 26 33 35 36 42 49 51 
 61 64 
 14 
 2 10 16 18 28 41 42 45 47 54 55 56 
 61 62 
 28 
 1 2 3 7 8 10 11 13 14 16 19 21 
 22 23 24 25 28 29 30 34 35 43 54 55 
 59 61 63 64 
 61 
 1 2 3 4 5 6 7 8 9 10 11 12 
 13 14 15 16 17 18 19 21 22 23 24 25 
 26 27 28 29 30 31 32 33 34 35 36 37 
 38 39 40 41 42 43 44 45 46 48 49 50 
 51 52 53 54 55 56 57 59 60 61 62 63 
 64 
 26 
 3 6 10 13 17 20 21 22 25 29 31 32 
 34 35 37 38 45 46 48 51 53 57 58 59 
 61 62 
 16 
 6 10 17 19 21 28 29 35 42 43 47 49 
 53 55 60 61 
 17 
 5 6 16 17 21 22 28 29 37 38 42 46 
 47 48 52 54 59 
 44 
 1 2 3 5 6 7 8 9 10 11 12 13 
 15 16 20 22 23 24 25 27 29 30 31 32 
 34 36 37 38 39 40 43 44 47 49 50 51 
 53 55 58 59 60 61 63 64 
 38 
 1 4 5 6 9 11 14 15 17 19 20 22 
 23 24 26 27 31 32 33 36 37 38 39 41 
 42 43 45 47 48 49 52 53 54 55 57 60 
 62 64 
 7 
 2 5 19 30 32 55 58 
 12 
 2 13 14 16 20 22 33 43 44 48 50 59 
 55 
 1 2 3 4 5 6 7 8 9 10 11 12 
 13 14 15 16 18 20 22 23 24 25 26 27 
 28 29 30 31 33 34 35 36 37 40 41 42 
 43 44 45 47 48 50 51 52 53 54 55 57 
 58 59 60 61 62 63 64 
 9 
 7 21 32 33 38 48 53 56 61 
 40 
 1 2 3 4 6 7 10 11 13 14 15 17 
 20 22 24 25 26 29 30 32 35 36 37 38 
 39 42 43 44 46 48 49 50 51 54 57 58 
 61 62 63 64 
 25 
 1 3 5 7 9 10 12 13 14 17 24 28 
 29 30 33 35 39 43 47 54 55 57 58 60 
 61 
 39 
 3 4 5 6 8 10 11 12 13 14 16 17 
 18 20 21 22 25 27 28 31 32 35 36 39 
 40 41 43 45 46 50 51 53 55 57 58 59 
 62 63 64 
 17 
 15 17 19 20 30 35 37 39 40 41 44 48 
 50 54 56 57 59 
 23 
 1 2 5 18 22 23 26 27 28 29 34 36 
 38 39 44 52 53 54 55 56 57 59 63 
 26 
 1 2 7 8 9 10 12 14 16 17 22 26 
 28 37 41 43 49 52 53 54 55 56 57 61 
 62 63 
 63 
 1 2 3 4 5 6 7 8 9 10 11 12 
 13 14 15 16 17 18 19 20 21 22 23 24 
 25 26 27 28 29 30 31 32 33 34 35 36 
 37 38 39 40 41 42 43 44 45 46 47 48 
 49 50 51 52 53 54 55 56 57 58 59 60 
 61 62 64 
 57 
 2 3 4 5 6 7 8 9 10 11 12 13 
 14 16 17 18 19 20 21 22 23 24 25 26 
 27 28 29 30 31 32 34 35 36 37 38 39 
 40 41 42 43 45 46 48 49 50 51 53 54 
 55 56 57 58 59 60 61 62 63 
 61 
 1 2 3 5 6 7 8 9 10 11 12 13 
 14 16 17 18 19 20 21 22 23 24 25 26 
 27 28 29 31 32 33 34 35 36 37 38 39 
 40 41 42 43 44 45 46 47 48 49 50 51 
 52 53 54 55 56 57 58 59 60 61 62 63 
 64 
 8 
 12 16 26 28 45 52 58 62 
 28 
 1 2 4 5 11 13 14 17 18 21 23 26 
 27 32 33 40 41 42 43 44 47 51 52 54 
 56 57 58 59 
 2 
 13 19 
 31 
 4 8 9 11 12 16 17 18 20 22 24 25 
 26 28 29 31 33 35 37 39 43 44 45 47 
 49 50 51 52 53 56 60 
 32 
 2 5 6 7 9 10 11 13 14 15 17 19 
 23 24 28 29 30 32 33 36 38 39 42 46 
 48 53 54 57 58 60 61 62 
 30 
 1 2 4 5 6 10 13 14 15 16 20 22 
 23 27 30 33 34 39 43 44 48 49 51 55 
 56 60 61 62 63 64 
 